n_res = 4;
rc = [ 20, 30, 22, 26 ];
n_tasks = 120;
d = [ 8, 10, 6, 7, 8, 5, 7, 4, 5, 10, 2, 3, 2, 7, 8, 6, 3, 1, 9, 2, 4, 2, 10, 5, 5, 10, 7, 4, 2, 4, 3, 4, 9, 2, 7, 10, 2, 9, 8, 1, 7, 10, 3, 4, 6, 6, 2, 4, 2, 5, 3, 3, 6, 10, 7, 4, 2, 5, 10, 4, 6, 3, 2, 9, 10, 6, 9, 3, 6, 6, 7, 3, 3, 4, 5, 7, 6, 5, 8, 5, 9, 10, 1, 2, 1, 10, 5, 3, 10, 7, 5, 4, 4, 10, 1, 3, 2, 8, 10, 2, 4, 1, 9, 2, 10, 10, 6, 9, 10, 7, 3, 7, 4, 6, 4, 10, 7, 9, 7, 9 ];
rr = [| 3, 0, 3, 0, 0, 0, 0, 0, 0, 1, 0, 4, 6, 10, 0, 0, 9, 3, 0, 0, 0, 0, 0, 0, 0, 0, 0, 9, 0, 0, 0, 0, 0, 0, 0, 0, 0, 10, 0, 0, 0, 0, 2, 0, 0, 0, 0, 1, 0, 0, 0, 0, 5, 0, 2, 0, 0, 8, 0, 3, 0, 0, 2, 8, 0, 0, 2, 5, 0, 0, 7, 8, 0, 9, 0, 0, 0, 9, 0, 4, 0, 8, 0, 7, 0, 0, 0, 0, 0, 0, 0, 0, 2, 0, 0, 0, 7, 0, 0, 6, 0, 0, 0, 10, 0, 0, 0, 0, 7, 0, 0, 0, 5, 0, 0, 0, 0, 2, 0, 9
      | 0, 2, 0, 0, 0, 8, 0, 9, 0, 0, 0, 0, 0, 0, 0, 0, 0, 0, 0, 0, 5, 0, 0, 0, 0, 0, 8, 0, 0, 0, 0, 0, 0, 0, 0, 0, 8, 0, 0, 3, 6, 0, 0, 0, 0, 8, 0, 0, 0, 0, 0, 0, 0, 10, 0, 0, 0, 0, 10, 0, 0, 0, 0, 0, 10, 0, 0, 0, 0, 0, 0, 0, 0, 0, 4, 0, 8, 0, 10, 0, 10, 0, 2, 0, 0, 0, 0, 0, 3, 0, 0, 0, 0, 0, 0, 0, 0, 0, 6, 0, 0, 0, 7, 0, 0, 0, 0, 0, 0, 1, 0, 6, 0, 0, 0, 0, 0, 0, 2, 0
      | 0, 0, 0, 3, 7, 0, 0, 0, 8, 0, 2, 0, 0, 0, 0, 4, 0, 0, 0, 2, 0, 0, 0, 8, 0, 0, 0, 0, 0, 8, 0, 9, 0, 0, 0, 0, 0, 0, 0, 0, 0, 2, 0, 4, 9, 0, 0, 0, 5, 8, 0, 1, 0, 0, 0, 0, 0, 0, 0, 0, 2, 0, 0, 0, 0, 0, 0, 0, 3, 5, 0, 0, 0, 0, 0, 8, 0, 0, 0, 0, 0, 0, 0, 0, 0, 0, 2, 0, 0, 5, 6, 7, 0, 4, 0, 1, 0, 8, 0, 0, 0, 8, 0, 0, 4, 0, 2, 8, 0, 0, 0, 0, 0, 0, 6, 5, 5, 0, 0, 0
      | 0, 0, 0, 0, 0, 0, 5, 0, 0, 0, 0, 0, 0, 0, 10, 0, 0, 0, 3, 0, 0, 5, 3, 0, 2, 5, 0, 0, 1, 0, 8, 0, 7, 6, 8, 10, 0, 0, 4, 0, 0, 0, 0, 0, 0, 0, 5, 0, 0, 0, 4, 0, 0, 0, 0, 9, 2, 0, 0, 0, 0, 4, 0, 0, 0, 4, 0, 0, 0, 0, 0, 0, 6, 0, 0, 0, 0, 0, 0, 0, 0, 0, 0, 0, 10, 8, 0, 7, 0, 0, 0, 0, 0, 0, 5, 0, 0, 0, 0, 0, 6, 0, 0, 0, 0, 2, 0, 0, 0, 0, 2, 0, 0, 9, 0, 0, 0, 0, 0, 0 |];
suc = [ { 4, 5, 10 },
       { 7, 25, 49 },
       { 6, 8, 14 },
       { 9, 11, 12 },
       { 81 },
       { 16, 17, 38 },
       { 23, 56, 65 },
       { 48 },
       { 13, 18, 33 },
       { 15, 92, 102 },
       { 50 },
       { 19, 54 },
       { 20, 22, 26 },
       { 31, 91, 100 },
       { 28, 51, 75 },
       { 45 },
       { 21, 32, 37 },
       { 44, 64 },
       { 69 },
       { 24, 30, 39 },
       { 44 },
       { 29, 99, 106 },
       { 83 },
       { 27, 76, 87 },
       { 34 },
       { 66, 70, 86 },
       { 36 },
       { 35 },
       { 101 },
       { 62, 71 },
       { 58 },
       { 41, 88 },
       { 73, 82 },
       { 40, 116 },
       { 47, 57 },
       { 43 },
       { 42, 61 },
       { 52, 53 },
       { 73 },
       { 70, 82 },
       { 46 },
       { 85 },
       { 68 },
       { 61, 77 },
       { 62 },
       { 89 },
       { 68, 90 },
       { 60, 74 },
       { 80 },
       { 107 },
       { 63 },
       { 55 },
       { 97 },
       { 79 },
       { 59 },
       { 76 },
       { 64, 67, 88 },
       { 68 },
       { 94 },
       { 102 },
       { 62 },
       { 85 },
       { 89 },
       { 74 },
       { 91 },
       { 78, 98 },
       { 84 },
       { 72, 84, 88 },
       { 78 },
       { 114 },
       { 108 },
       { 96 },
       { 75 },
       { 90 },
       { 93, 103 },
       { 80, 119 },
       { 84 },
       { 81 },
       { 102 },
       { 115 },
       { 103 },
       { 96 },
       { 85 },
       { 93 },
       { 111 },
       { 106, 109 },
       { 95, 97, 111 },
       { 106, 120 },
       { 110 },
       { 117 },
       { 97, 108 },
       { 94 },
       { 108 },
       { 98, 115 },
       { 98 },
       { 104, 105, 109 },
       { 104 },
       { 104 },
       { 107 },
       { 114 },
       { 115 },
       { 112 },
       { 113 },
       { 114 },
       { 119 },
       { 113 },
       { 111 },
       { 109 },
       { 120 },
       { 118 },
       { 112 },
       { 120 },
       { 116 },
       { 117 },
       { 118 },
       { 118 },
       { 119 },
       {  },
       {  },
       {  } ];
